Academic license - for non-commercial use only
Set parameter TimeLimit to value 7200

Gurobi Optimizer version 8.0.0 build v8.0.0rc0 (linux64)
Copyright (c) 2018, Gurobi Optimization, LLC

Read LP format model from file compact/abz5.lp
Reading time = 0.01 seconds
: 1900 rows, 1101 columns, 5600 nonzeros
Optimize a model with 1900 rows, 1101 columns and 5600 nonzeros
Variable types: 0 continuous, 1101 integer (1000 binary)
Coefficient statistics:
  Matrix range     [1e+00, 8e+03]
  Objective range  [1e+00, 1e+00]
  Bounds range     [1e+00, 1e+00]
  RHS range        [5e+01, 8e+03]
Presolve removed 0 rows and 100 columns
Presolve time: 0.01s
Presolved: 1900 rows, 1001 columns, 5600 nonzeros
Variable types: 0 continuous, 1001 integer (900 binary)

Root relaxation: objective 8.880000e+02, 538 iterations, 0.00 seconds

    Nodes    |    Current Node    |     Objective Bounds      |     Work
 Expl Unexpl |  Obj  Depth IntInf | Incumbent    BestBd   Gap | It/Node Time

     0     0  888.00000    0  116          -  888.00000      -     -    0s
     0     0  895.84390    0  233          -  895.84390      -     -    0s
     0     0  895.84390    0  231          -  895.84390      -     -    0s
     0     0  918.53102    0  236          -  918.53102      -     -    0s
     0     0  919.25587    0  232          -  919.25587      -     -    0s
     0     0  919.25587    0  239          -  919.25587      -     -    0s
     0     0  926.28931    0  229          -  926.28931      -     -    0s
     0     0  926.28931    0   41          -  926.28931      -     -    0s
     0     0  926.28931    0   94          -  926.28931      -     -    0s
     0     0  926.28931    0  157          -  926.28931      -     -    0s
     0     0  926.28931    0  162          -  926.28931      -     -    0s
     0     0  926.66964    0  161          -  926.66964      -     -    0s
     0     0  926.66964    0  165          -  926.66964      -     -    0s
     0     0  936.76952    0  156          -  936.76952      -     -    0s
     0     0  936.76952    0  173          -  936.76952      -     -    0s
     0     0  937.86685    0  186          -  937.86685      -     -    0s
     0     0  938.22663    0  178          -  938.22663      -     -    0s
     0     0  938.22663    0  194          -  938.22663      -     -    0s
     0     0  940.51592    0  182          -  940.51592      -     -    0s
     0     0  941.20191    0  184          -  941.20191      -     -    0s
     0     0  941.20191    0  184          -  941.20191      -     -    0s
     0     0  941.30427    0  182          -  941.30427      -     -    0s
     0     0  941.30427    0  186          -  941.30427      -     -    0s
     0     0  941.30427    0  192          -  941.30427      -     -    0s
     0     0  941.30552    0  194          -  941.30552      -     -    0s
     0     0  941.51016    0  187          -  941.51016      -     -    0s
     0     0  941.51016    0  190          -  941.51016      -     -    0s
     0     0  941.51016    0  192          -  941.51016      -     -    0s
     0     0  941.51016    0  192          -  941.51016      -     -    0s
     0     0  941.86722    0  191          -  941.86722      -     -    0s
     0     0  941.86722    0  192          -  941.86722      -     -    0s
     0     0  942.03183    0  193          -  942.03183      -     -    0s
     0     0  942.03592    0  194          -  942.03592      -     -    0s
     0     0  942.24279    0  190          -  942.24279      -     -    0s
     0     0  942.24279    0  189          -  942.24279      -     -    0s
     0     0  942.24279    0  193          -  942.24279      -     -    0s
     0     0  943.00000    0  146          -  943.00000      -     -    0s
     0     0  943.00000    0  145          -  943.00000      -     -    0s
     0     2  943.00000    0  125          -  943.00000      -     -    1s
*  176   143              72    1514.0000000  956.66561  36.8%  21.3    1s
*  178   141              72    1498.0000000  956.66561  36.1%  21.1    1s
H  201   168                    1493.0000000  956.66561  35.9%  19.8    1s
H  214   177                    1489.0000000  956.66561  35.8%  20.8    1s
H  241   189                    1487.0000000  956.66561  35.7%  19.4    1s
*  252   186              94    1450.0000000  956.66561  34.0%  19.6    1s
H  285   210                    1436.0000000  956.66561  33.4%  20.7    1s
H  327   216                    1389.0000000  956.66561  31.1%  20.8    1s
H  377   253                    1382.0000000  961.00000  30.5%  19.2    1s
H  411   260                    1360.0000000  961.00000  29.3%  18.9    1s
H  447   292                    1356.0000000  961.00000  29.1%  18.4    1s
*  557   376              41    1352.0000000  961.00000  28.9%  17.8    1s
*  558   374              41    1343.0000000  961.00000  28.4%  17.8    1s
H  639   367                    1330.0000000  961.00000  27.7%  17.6    1s
H  697   395                    1329.0000000  967.29908  27.2%  17.4    2s
H  729   377                    1272.0000000  967.29908  24.0%  17.4    2s
* 1030   497              57    1269.0000000  973.00000  23.3%  30.2    4s
  1449   542 1098.00000   37   31 1269.00000  973.00000  23.3%  26.8    5s
* 1540   542              54    1268.0000000  973.00000  23.3%  26.2    5s
* 1617   529              56    1261.0000000  974.00000  22.8%  25.8    5s
H 1646   511                    1260.0000000  974.00000  22.7%  25.8    5s
* 1658   486              53    1258.0000000  974.00000  22.6%  25.8    5s
* 1659   468              53    1253.0000000  974.00000  22.3%  25.8    5s
* 1676   451              54    1251.0000000  974.00000  22.1%  25.8    5s
 13257  3494 infeasible   48      1251.00000 1036.00000  17.2%  13.6   10s
H14681  3747                    1250.0000000 1037.00000  17.0%  13.4   10s
H14688  3735                    1242.0000000 1038.00000  16.4%  13.4   10s
 20451  4718 1147.00000   50  229 1242.00000 1044.00000  15.9%  13.2   18s
 20473  4733 1091.00000   43  160 1242.00000 1044.00000  15.9%  13.2   20s
 20527  4769 1125.00000   54  183 1242.00000 1044.00000  15.9%  13.1   25s
 20603  4819 1098.00000   36  195 1242.00000 1044.00000  15.9%  13.1   30s
 20680  4871 1073.00000   40  206 1242.00000 1044.00000  15.9%  13.0   35s
 20778  4923 1112.00000   49  106 1242.00000 1044.00000  15.9%  14.9   40s
 21702  4879 1098.00000   59   33 1242.00000 1044.00000  15.9%  16.6   45s
 29437  4197 infeasible   62      1242.00000 1050.00000  15.5%  17.2   50s
 38042  3478 infeasible   59      1242.00000 1078.00000  13.2%  16.9   55s
*38935  3577              66    1241.0000000 1078.00000  13.1%  16.9   55s
H38960  3567                    1239.0000000 1078.00000  13.0%  16.9   55s
H39096  3556                    1238.0000000 1078.00000  12.9%  17.0   56s
H39097  3547                    1234.0000000 1078.00000  12.6%  17.0   56s
 40966  3467 1105.00000   58   44 1234.00000 1086.00000  12.0%  17.2   60s
 48444  3417 infeasible   64      1234.00000 1102.00000  10.7%  17.0   65s
 55375  2695 1166.00000   65   23 1234.00000 1122.00000  9.08%  16.6   70s
 62976   570 infeasible   44      1234.00000 1168.00000  5.35%  16.1   75s

Cutting planes:
  Gomory: 7
  Cover: 3
  Implied bound: 2
  Clique: 4
  MIR: 19
  Flow cover: 46
  Zero half: 2

Explored 63672 nodes (1025110 simplex iterations) in 75.52 seconds
Thread count was 4 (of 4 available processors)

Solution count 10: 1234 1238 1239 ... 1260

Optimal solution found (tolerance 1.00e-04)
Best objective 1.234000000000e+03, best bound 1.234000000000e+03, gap 0.0000%

Wrote result file 'compact_abz5.sol'

